data;

param nb_p := 15;
param nb_d := 20;
param nb_h := 11;
param autonomy_max := 1764;
param recharge_time := 3;

param delivery_time := 1 194
2 209
3 117
4 38
5 242
6 225
7 256
8 132
9 166
10 272
11 386;

param orders := 1 1
2 1
3 1
4 2
5 2
6 2
7 3
8 4
9 6
10 7
11 8
12 8
13 9
14 10
15 10;

end;
